GLPSOL--GLPK LP/MIP Solver 5.0
Parameter(s) specified in the command line:
 --cpxlp --first inputs/new_no_tr/order/default30_down_left_input.lp -o solutions/new_no_tr/default30_down_left_input.lp
Reading problem data from 'inputs/new_no_tr/order/default30_down_left_input.lp'...
inputs/new_no_tr/order/default30_down_left_input.lp:4507: warning: lower bound of variable 'm_1_1' redefined
inputs/new_no_tr/order/default30_down_left_input.lp:4507: warning: upper bound of variable 'm_1_1' redefined
4329 rows, 1831 columns, 12785 non-zeros
1831 integer variables, 1660 of which are binary
6307 lines were read
GLPK Integer Optimizer 5.0
4329 rows, 1831 columns, 12785 non-zeros
1831 integer variables, 1660 of which are binary
Preprocessing...
30 hidden packing inequaliti(es) were detected
239 hidden covering inequaliti(es) were detected
790 constraint coefficient(s) were reduced
3984 rows, 1597 columns, 11559 non-zeros
1597 integer variables, 1566 of which are binary
Scaling...
 A: min|aij| =  1.000e+00  max|aij| =  1.024e+04  ratio =  1.024e+04
GM: min|aij| =  4.273e-01  max|aij| =  2.340e+00  ratio =  5.477e+00
EQ: min|aij| =  1.826e-01  max|aij| =  1.000e+00  ratio =  5.477e+00
2N: min|aij| =  1.250e-01  max|aij| =  1.750e+00  ratio =  1.400e+01
Constructing initial basis...
Size of triangular part is 3589
Solving LP relaxation...
GLPK Simplex Optimizer 5.0
3984 rows, 1597 columns, 11559 non-zeros
      0: obj =   2.560000000e+04 inf =   1.802e+02 (169)
   1222: obj =   3.333205921e+04 inf =   1.427e-13 (0) 11
*  1513: obj =   2.560000000e+04 inf =   3.292e-14 (0) 3
OPTIMAL LP SOLUTION FOUND
Integer optimization begins...
Long-step dual simplex will be used
+  1513: mip =     not found yet >=              -inf        (1; 0)
+ 17720: mip =     not found yet >=   2.560000000e+04        (152; 134)
+ 35003: mip =     not found yet >=   2.560000000e+04        (297; 287)
+ 52154: mip =     not found yet >=   2.560000000e+04        (410; 483)
+ 70243: mip =     not found yet >=   2.560000000e+04        (485; 600)
+ 88523: mip =     not found yet >=   2.560000000e+04        (573; 723)
+107324: mip =     not found yet >=   2.560000000e+04        (658; 825)
+125689: mip =     not found yet >=   2.560000000e+04        (753; 918)
+143513: mip =     not found yet >=   2.560000000e+04        (846; 979)
+153567: >>>>>   4.300800000e+04 >=   2.713600000e+04  36.9% (999; 1014)
+153750: >>>>>   3.584000000e+04 >=   2.713600000e+04  24.3% (1012; 1015)
Solution found by heuristic: 32768
Solution found by heuristic: 31744
+154240: >>>>>   2.867200000e+04 >=   2.713600000e+04   5.4% (1007; 1065)
+173443: mip =   2.867200000e+04 >=   2.713600000e+04   5.4% (1175; 1957)
+192471: mip =   2.867200000e+04 >=   2.713600000e+04   5.4% (1519; 2544)
+211909: mip =   2.867200000e+04 >=   2.713600000e+04   5.4% (1850; 3124)
Time used: 60.0 secs.  Memory used: 21.3 Mb.
+231891: mip =   2.867200000e+04 >=   2.713600000e+04   5.4% (2176; 3639)
+252227: mip =   2.867200000e+04 >=   2.713600000e+04   5.4% (2506; 4181)
+270694: mip =   2.867200000e+04 >=   2.713600000e+04   5.4% (2893; 4718)
+290460: mip =   2.867200000e+04 >=   2.713600000e+04   5.4% (3230; 5222)
+310215: mip =   2.867200000e+04 >=   2.713600000e+04   5.4% (3613; 5684)
+329176: mip =   2.867200000e+04 >=   2.713600000e+04   5.4% (3931; 6216)
+348535: mip =   2.867200000e+04 >=   2.713600000e+04   5.4% (4270; 6677)
+366278: mip =   2.867200000e+04 >=   2.713600000e+04   5.4% (4537; 7289)
+383712: mip =   2.867200000e+04 >=   2.713600000e+04   5.4% (4816; 7928)
+402196: mip =   2.867200000e+04 >=   2.713600000e+04   5.4% (5108; 8449)
+420762: mip =   2.867200000e+04 >=   2.713600000e+04   5.4% (5380; 9032)
+437529: mip =   2.867200000e+04 >=   2.713600000e+04   5.4% (5653; 9673)
Time used: 120.0 secs.  Memory used: 52.8 Mb.
+454403: mip =   2.867200000e+04 >=   2.713600000e+04   5.4% (5979; 10227)
+471995: mip =   2.867200000e+04 >=   2.713600000e+04   5.4% (6301; 10746)
+489426: mip =   2.867200000e+04 >=   2.713600000e+04   5.4% (6603; 11246)
+506010: mip =   2.867200000e+04 >=   2.713600000e+04   5.4% (6878; 11791)
+521649: mip =   2.867200000e+04 >=   2.713600000e+04   5.4% (7141; 12368)
+538714: mip =   2.867200000e+04 >=   2.713600000e+04   5.4% (7483; 12789)
+555634: mip =   2.867200000e+04 >=   2.713600000e+04   5.4% (7781; 13247)
+571829: mip =   2.867200000e+04 >=   2.713600000e+04   5.4% (8044; 13733)
+588562: mip =   2.867200000e+04 >=   2.713600000e+04   5.4% (8324; 14161)
+603937: mip =   2.867200000e+04 >=   2.713600000e+04   5.4% (8555; 14687)
+618516: mip =   2.867200000e+04 >=   2.713600000e+04   5.4% (8795; 15233)
+632330: mip =   2.867200000e+04 >=   2.713600000e+04   5.4% (9020; 15750)
Time used: 180.0 secs.  Memory used: 80.3 Mb.
+648284: mip =   2.867200000e+04 >=   2.713600000e+04   5.4% (9267; 16160)
+664974: mip =   2.867200000e+04 >=   2.713600000e+04   5.4% (9540; 16523)
+678347: mip =   2.867200000e+04 >=   2.713600000e+04   5.4% (9796; 16983)
+692287: mip =   2.867200000e+04 >=   2.713600000e+04   5.4% (10012; 17522)
+708059: mip =   2.867200000e+04 >=   2.713600000e+04   5.4% (10273; 17921)
+725219: mip =   2.867200000e+04 >=   2.713600000e+04   5.4% (10505; 18314)
+739506: mip =   2.867200000e+04 >=   2.713600000e+04   5.4% (10748; 18813)
+752646: mip =   2.867200000e+04 >=   2.713600000e+04   5.4% (10963; 19347)
+765972: mip =   2.867200000e+04 >=   2.713600000e+04   5.4% (11186; 19861)
+778633: mip =   2.867200000e+04 >=   2.713600000e+04   5.4% (11434; 20325)
+793115: mip =   2.867200000e+04 >=   2.713600000e+04   5.4% (11699; 20716)
+806533: mip =   2.867200000e+04 >=   2.713600000e+04   5.4% (11932; 21183)
Time used: 240.0 secs.  Memory used: 103.6 Mb.
+821627: mip =   2.867200000e+04 >=   2.713600000e+04   5.4% (12186; 21579)
+834553: mip =   2.867200000e+04 >=   2.713600000e+04   5.4% (12436; 21998)
+851795: mip =   2.867200000e+04 >=   2.713600000e+04   5.4% (12762; 22353)
+870688: mip =   2.867200000e+04 >=   2.713600000e+04   5.4% (13033; 22722)
+885370: mip =   2.867200000e+04 >=   2.713600000e+04   5.4% (13290; 23202)
+899071: mip =   2.867200000e+04 >=   2.713600000e+04   5.4% (13397; 24007)
+914723: mip =   2.867200000e+04 >=   2.713600000e+04   5.4% (13603; 24566)
+932557: mip =   2.867200000e+04 >=   2.713600000e+04   5.4% (13853; 24946)
+947936: mip =   2.867200000e+04 >=   2.713600000e+04   5.4% (14117; 25386)
+962122: mip =   2.867200000e+04 >=   2.713600000e+04   5.4% (14245; 26114)
+976944: mip =   2.867200000e+04 >=   2.713600000e+04   5.4% (14370; 26749)
+992879: mip =   2.867200000e+04 >=   2.713600000e+04   5.4% (14605; 27233)
Time used: 300.0 secs.  Memory used: 125.8 Mb.
+1010825: mip =   2.867200000e+04 >=   2.713600000e+04   5.4% (14847; 27599)
+1024131: mip =   2.867200000e+04 >=   2.713600000e+04   5.4% (15090; 28086)
+1038720: mip =   2.867200000e+04 >=   2.713600000e+04   5.4% (15326; 28542)
+1052799: mip =   2.867200000e+04 >=   2.713600000e+04   5.4% (15609; 28969)
+1068803: mip =   2.867200000e+04 >=   2.713600000e+04   5.4% (15898; 29333)
+1083923: mip =   2.867200000e+04 >=   2.713600000e+04   5.4% (16164; 29733)
+1099278: mip =   2.867200000e+04 >=   2.713600000e+04   5.4% (16413; 30121)
+1115187: mip =   2.867200000e+04 >=   2.713600000e+04   5.4% (16660; 30518)
+1128239: mip =   2.867200000e+04 >=   2.713600000e+04   5.4% (16913; 30956)
+1140689: mip =   2.867200000e+04 >=   2.713600000e+04   5.4% (17036; 31617)
+1153182: mip =   2.867200000e+04 >=   2.713600000e+04   5.4% (17134; 32332)
+1166886: mip =   2.867200000e+04 >=   2.713600000e+04   5.4% (17266; 32956)
Time used: 360.0 secs.  Memory used: 145.5 Mb.
+1180035: mip =   2.867200000e+04 >=   2.713600000e+04   5.4% (17389; 33636)
+1192527: mip =   2.867200000e+04 >=   2.713600000e+04   5.4% (17497; 34295)
+1205249: mip =   2.867200000e+04 >=   2.713600000e+04   5.4% (17625; 34892)
+1217596: mip =   2.867200000e+04 >=   2.713600000e+04   5.4% (17718; 35624)
+1232026: mip =   2.867200000e+04 >=   2.713600000e+04   5.4% (17965; 36019)
+1247549: mip =   2.867200000e+04 >=   2.713600000e+04   5.4% (18216; 36372)
+1261721: mip =   2.867200000e+04 >=   2.713600000e+04   5.4% (18481; 36747)
+1275985: mip =   2.867200000e+04 >=   2.713600000e+04   5.4% (18699; 37143)
+1290196: mip =   2.867200000e+04 >=   2.713600000e+04   5.4% (18972; 37517)
+1301641: mip =   2.867200000e+04 >=   2.713600000e+04   5.4% (19179; 38017)
+1315965: mip =   2.867200000e+04 >=   2.713600000e+04   5.4% (19464; 38376)
+1330360: mip =   2.867200000e+04 >=   2.713600000e+04   5.4% (19699; 38759)
Time used: 420.0 secs.  Memory used: 164.2 Mb.
+1343624: mip =   2.867200000e+04 >=   2.713600000e+04   5.4% (19932; 39152)
+1358423: mip =   2.867200000e+04 >=   2.713600000e+04   5.4% (20149; 39511)
+1370442: mip =   2.867200000e+04 >=   2.713600000e+04   5.4% (20349; 39946)
+1382246: mip =   2.867200000e+04 >=   2.713600000e+04   5.4% (20555; 40390)
+1394934: mip =   2.867200000e+04 >=   2.713600000e+04   5.4% (20810; 40756)
+1406620: mip =   2.867200000e+04 >=   2.713600000e+04   5.4% (21014; 41136)
+1420845: mip =   2.867200000e+04 >=   2.713600000e+04   5.4% (21261; 41473)
+1436881: mip =   2.867200000e+04 >=   2.713600000e+04   5.4% (21534; 41739)
+1449950: mip =   2.867200000e+04 >=   2.713600000e+04   5.4% (21757; 42077)
+1461610: mip =   2.867200000e+04 >=   2.713600000e+04   5.4% (21974; 42481)
+1473500: mip =   2.867200000e+04 >=   2.713600000e+04   5.4% (22239; 42827)
+1483868: mip =   2.867200000e+04 >=   2.713600000e+04   5.4% (22392; 43244)
Time used: 480.0 secs.  Memory used: 186.7 Mb.
+1495822: mip =   2.867200000e+04 >=   2.713600000e+04   5.4% (22659; 43619)
+1507344: mip =   2.867200000e+04 >=   2.713600000e+04   5.4% (22877; 44041)
+1518239: mip =   2.867200000e+04 >=   2.713600000e+04   5.4% (23058; 44419)
+1529771: mip =   2.867200000e+04 >=   2.713600000e+04   5.4% (23223; 44850)
+1540510: mip =   2.867200000e+04 >=   2.713600000e+04   5.4% (23301; 45473)
+1551866: mip =   2.867200000e+04 >=   2.713600000e+04   5.4% (23518; 45854)
+1563531: mip =   2.867200000e+04 >=   2.713600000e+04   5.4% (23700; 46282)
+1575268: mip =   2.867200000e+04 >=   2.713600000e+04   5.4% (23930; 46644)
+1586988: mip =   2.867200000e+04 >=   2.713600000e+04   5.4% (24153; 47000)
+1599878: mip =   2.867200000e+04 >=   2.713600000e+04   5.4% (24307; 47379)
+1611188: mip =   2.867200000e+04 >=   2.713600000e+04   5.4% (24523; 47744)
+1624249: mip =   2.867200000e+04 >=   2.713600000e+04   5.4% (24727; 48076)
Time used: 540.0 secs.  Memory used: 206.0 Mb.
+1637580: mip =   2.867200000e+04 >=   2.713600000e+04   5.4% (24944; 48417)
+1648748: mip =   2.867200000e+04 >=   2.713600000e+04   5.4% (25148; 48798)
+1660413: mip =   2.867200000e+04 >=   2.713600000e+04   5.4% (25371; 49113)
+1671129: mip =   2.867200000e+04 >=   2.713600000e+04   5.4% (25570; 49464)
+1682975: mip =   2.867200000e+04 >=   2.713600000e+04   5.4% (25785; 49809)
+1694162: mip =   2.867200000e+04 >=   2.713600000e+04   5.4% (25989; 50155)
+1707222: mip =   2.867200000e+04 >=   2.713600000e+04   5.4% (26197; 50465)
+1719512: mip =   2.867200000e+04 >=   2.713600000e+04   5.4% (26380; 50802)
+1732132: mip =   2.867200000e+04 >=   2.713600000e+04   5.4% (26576; 51158)
+1742677: mip =   2.867200000e+04 >=   2.713600000e+04   5.4% (26763; 51503)
+1755634: mip =   2.867200000e+04 >=   2.713600000e+04   5.4% (26970; 51791)
+1768859: mip =   2.867200000e+04 >=   2.713600000e+04   5.4% (27190; 52093)
Time used: 600.0 secs.  Memory used: 227.2 Mb.
+1780986: mip =   2.867200000e+04 >=   2.713600000e+04   5.4% (27395; 52397)
+1792320: mip =   2.867200000e+04 >=   2.713600000e+04   5.4% (27585; 52735)
+1803406: mip =   2.867200000e+04 >=   2.713600000e+04   5.4% (27781; 53071)
+1814172: mip =   2.867200000e+04 >=   2.713600000e+04   5.4% (27958; 53456)
+1824618: mip =   2.867200000e+04 >=   2.713600000e+04   5.4% (28168; 53782)
+1836400: mip =   2.867200000e+04 >=   2.713600000e+04   5.4% (28378; 54092)
+1847726: mip =   2.867200000e+04 >=   2.713600000e+04   5.4% (28588; 54410)
+1858200: mip =   2.867200000e+04 >=   2.713600000e+04   5.4% (28800; 54738)
+1867154: mip =   2.867200000e+04 >=   2.713600000e+04   5.4% (28941; 55144)
+1877977: mip =   2.867200000e+04 >=   2.713600000e+04   5.4% (29113; 55506)
+1890008: mip =   2.867200000e+04 >=   2.713600000e+04   5.4% (29328; 55814)
+1901677: mip =   2.867200000e+04 >=   2.713600000e+04   5.4% (29504; 56143)
Time used: 660.0 secs.  Memory used: 246.7 Mb.
+1911358: mip =   2.867200000e+04 >=   2.713600000e+04   5.4% (29674; 56513)
+1921629: mip =   2.867200000e+04 >=   2.713600000e+04   5.4% (29851; 56854)
+1931963: mip =   2.867200000e+04 >=   2.713600000e+04   5.4% (30050; 57180)
+1941819: mip =   2.867200000e+04 >=   2.713600000e+04   5.4% (30201; 57523)
+1953585: mip =   2.867200000e+04 >=   2.713600000e+04   5.4% (30406; 57827)
+1966760: mip =   2.867200000e+04 >=   2.713600000e+04   5.4% (30604; 58117)
+1979316: mip =   2.867200000e+04 >=   2.713600000e+04   5.4% (30881; 58363)
+1989936: mip =   2.867200000e+04 >=   2.713600000e+04   5.4% (30996; 58780)
+1999928: mip =   2.867200000e+04 >=   2.713600000e+04   5.4% (31102; 59237)
+2010778: mip =   2.867200000e+04 >=   2.713600000e+04   5.4% (31199; 59646)
+2022605: mip =   2.867200000e+04 >=   2.713600000e+04   5.4% (31397; 59957)
+2034974: mip =   2.867200000e+04 >=   2.713600000e+04   5.4% (31588; 60259)
Time used: 720.0 secs.  Memory used: 263.6 Mb.
+2047629: mip =   2.867200000e+04 >=   2.713600000e+04   5.4% (31753; 60553)
+2059024: mip =   2.867200000e+04 >=   2.713600000e+04   5.4% (31958; 60847)
+2069541: mip =   2.867200000e+04 >=   2.713600000e+04   5.4% (32152; 61136)
+2081033: mip =   2.867200000e+04 >=   2.713600000e+04   5.4% (32342; 61436)
+2092992: mip =   2.867200000e+04 >=   2.713600000e+04   5.4% (32537; 61738)
+2106290: mip =   2.867200000e+04 >=   2.713600000e+04   5.4% (32683; 62063)
+2117118: mip =   2.867200000e+04 >=   2.713600000e+04   5.4% (32889; 62347)
+2128120: mip =   2.867200000e+04 >=   2.713600000e+04   5.4% (33099; 62626)
+2138705: mip =   2.867200000e+04 >=   2.713600000e+04   5.4% (33285; 62924)
+2149195: mip =   2.867200000e+04 >=   2.713600000e+04   5.4% (33443; 63239)
+2162325: mip =   2.867200000e+04 >=   2.713600000e+04   5.4% (33647; 63476)
+2171590: mip =   2.867200000e+04 >=   2.713600000e+04   5.4% (33831; 63771)
Time used: 780.0 secs.  Memory used: 283.0 Mb.
+2181836: mip =   2.867200000e+04 >=   2.713600000e+04   5.4% (33959; 64143)
+2190393: mip =   2.867200000e+04 >=   2.713600000e+04   5.4% (34024; 64623)
+2198234: mip =   2.867200000e+04 >=   2.713600000e+04   5.4% (34102; 65111)
+2209397: mip =   2.867200000e+04 >=   2.713600000e+04   5.4% (34296; 65419)
+2219717: mip =   2.867200000e+04 >=   2.713600000e+04   5.4% (34414; 65790)
+2233376: mip =   2.867200000e+04 >=   2.713600000e+04   5.4% (34582; 66080)
+2242334: mip =   2.867200000e+04 >=   2.713600000e+04   5.4% (34652; 66544)
+2251497: mip =   2.867200000e+04 >=   2.713600000e+04   5.4% (34732; 66990)
+2262727: mip =   2.867200000e+04 >=   2.713600000e+04   5.4% (34911; 67331)
+2273239: mip =   2.867200000e+04 >=   2.713600000e+04   5.4% (35046; 67676)
+2281540: mip =   2.867200000e+04 >=   2.713600000e+04   5.4% (35227; 67961)
+2290821: mip =   2.867200000e+04 >=   2.713600000e+04   5.4% (35385; 68280)
Time used: 840.0 secs.  Memory used: 295.3 Mb.
+2301090: mip =   2.867200000e+04 >=   2.713600000e+04   5.4% (35539; 68545)
+2312077: mip =   2.867200000e+04 >=   2.713600000e+04   5.4% (35761; 68798)
+2320767: mip =   2.867200000e+04 >=   2.713600000e+04   5.4% (35915; 69093)
+2329391: mip =   2.867200000e+04 >=   2.713600000e+04   5.4% (36054; 69377)
+2339544: mip =   2.867200000e+04 >=   2.713600000e+04   5.4% (36232; 69662)
+2349235: mip =   2.867200000e+04 >=   2.713600000e+04   5.4% (36391; 69983)
+2359092: mip =   2.867200000e+04 >=   2.713600000e+04   5.4% (36576; 70269)
+2368746: mip =   2.867200000e+04 >=   2.713600000e+04   5.4% (36764; 70556)
+2378441: mip =   2.867200000e+04 >=   2.713600000e+04   5.4% (36927; 70848)
+2387295: mip =   2.867200000e+04 >=   2.713600000e+04   5.4% (37059; 71163)
+2397405: mip =   2.867200000e+04 >=   2.713600000e+04   5.4% (37233; 71449)
+2406347: mip =   2.867200000e+04 >=   2.713600000e+04   5.4% (37347; 71783)
Time used: 900.0 secs.  Memory used: 310.9 Mb.
+2415082: mip =   2.867200000e+04 >=   2.713600000e+04   5.4% (37496; 72117)
+2423427: mip =   2.867200000e+04 >=   2.713600000e+04   5.4% (37601; 72468)
+2432084: mip =   2.867200000e+04 >=   2.713600000e+04   5.4% (37749; 72772)
+2440903: mip =   2.867200000e+04 >=   2.713600000e+04   5.4% (37908; 73078)
+2448496: mip =   2.867200000e+04 >=   2.713600000e+04   5.4% (38029; 73413)
+2458197: mip =   2.867200000e+04 >=   2.713600000e+04   5.4% (38176; 73706)
+2467097: mip =   2.867200000e+04 >=   2.713600000e+04   5.4% (38314; 73997)
+2476481: mip =   2.867200000e+04 >=   2.713600000e+04   5.4% (38483; 74267)
+2489465: mip =   2.867200000e+04 >=   2.713600000e+04   5.4% (38637; 74519)
+2497794: mip =   2.867200000e+04 >=   2.713600000e+04   5.4% (38784; 74806)
+2506144: mip =   2.867200000e+04 >=   2.713600000e+04   5.4% (38930; 75108)
+2513897: mip =   2.867200000e+04 >=   2.713600000e+04   5.4% (39046; 75452)
Time used: 960.1 secs.  Memory used: 324.9 Mb.
+2523437: mip =   2.867200000e+04 >=   2.713600000e+04   5.4% (39201; 75742)
+2532730: mip =   2.867200000e+04 >=   2.713600000e+04   5.4% (39362; 76020)
+2544293: mip =   2.867200000e+04 >=   2.713600000e+04   5.4% (39502; 76265)
+2552468: mip =   2.867200000e+04 >=   2.713600000e+04   5.4% (39670; 76524)
+2560393: mip =   2.867200000e+04 >=   2.713600000e+04   5.4% (39829; 76790)
+2567806: mip =   2.867200000e+04 >=   2.713600000e+04   5.4% (39951; 77086)
+2578369: mip =   2.867200000e+04 >=   2.713600000e+04   5.4% (40106; 77355)
+2585623: mip =   2.867200000e+04 >=   2.713600000e+04   5.4% (40268; 77621)
+2593880: mip =   2.867200000e+04 >=   2.713600000e+04   5.4% (40449; 77889)
+2604689: mip =   2.867200000e+04 >=   2.713600000e+04   5.4% (40593; 78156)
+2612103: mip =   2.867200000e+04 >=   2.713600000e+04   5.4% (40739; 78450)
+2619875: mip =   2.867200000e+04 >=   2.713600000e+04   5.4% (40894; 78720)
Time used: 1020.1 secs.  Memory used: 339.3 Mb.
+2627335: mip =   2.867200000e+04 >=   2.713600000e+04   5.4% (41039; 78997)
+2634540: mip =   2.867200000e+04 >=   2.713600000e+04   5.4% (41156; 79310)
+2642060: mip =   2.867200000e+04 >=   2.713600000e+04   5.4% (41302; 79610)
+2650011: mip =   2.867200000e+04 >=   2.713600000e+04   5.4% (41477; 79873)
+2658870: mip =   2.867200000e+04 >=   2.713600000e+04   5.4% (41608; 80143)
+2666336: mip =   2.867200000e+04 >=   2.713600000e+04   5.4% (41727; 80453)
+2673383: mip =   2.867200000e+04 >=   2.713600000e+04   5.4% (41840; 80760)
+2681281: mip =   2.867200000e+04 >=   2.713600000e+04   5.4% (41964; 81070)
+2688556: mip =   2.867200000e+04 >=   2.713600000e+04   5.4% (42098; 81366)
+2696181: mip =   2.867200000e+04 >=   2.713600000e+04   5.4% (42229; 81656)
+2704970: mip =   2.867200000e+04 >=   2.713600000e+04   5.4% (42369; 81930)
+2712114: mip =   2.867200000e+04 >=   2.713600000e+04   5.4% (42499; 82204)
Time used: 1080.1 secs.  Memory used: 351.6 Mb.
+2722593: mip =   2.867200000e+04 >=   2.713600000e+04   5.4% (42684; 82426)
+2731788: mip =   2.867200000e+04 >=   2.713600000e+04   5.4% (42797; 82716)
+2739680: mip =   2.867200000e+04 >=   2.713600000e+04   5.4% (42942; 82992)
+2747439: mip =   2.867200000e+04 >=   2.713600000e+04   5.4% (43098; 83242)
+2755396: mip =   2.867200000e+04 >=   2.713600000e+04   5.4% (43266; 83498)
+2762740: mip =   2.867200000e+04 >=   2.713600000e+04   5.4% (43401; 83751)
+2770298: mip =   2.867200000e+04 >=   2.713600000e+04   5.4% (43536; 84012)
+2777651: mip =   2.867200000e+04 >=   2.713600000e+04   5.4% (43673; 84264)
+2786973: mip =   2.867200000e+04 >=   2.713600000e+04   5.4% (43847; 84496)
+2795273: mip =   2.867200000e+04 >=   2.713600000e+04   5.4% (44014; 84736)
+2805709: mip =   2.867200000e+04 >=   2.713600000e+04   5.4% (44155; 84990)
+2813086: mip =   2.867200000e+04 >=   2.713600000e+04   5.4% (44305; 85255)
Time used: 1140.1 secs.  Memory used: 365.9 Mb.
+2820568: mip =   2.867200000e+04 >=   2.713600000e+04   5.4% (44434; 85509)
+2828380: mip =   2.867200000e+04 >=   2.713600000e+04   5.4% (44553; 85798)
+2836386: mip =   2.867200000e+04 >=   2.713600000e+04   5.4% (44691; 86074)
+2844312: mip =   2.867200000e+04 >=   2.713600000e+04   5.4% (44812; 86355)
+2853576: mip =   2.867200000e+04 >=   2.713600000e+04   5.4% (44969; 86596)
+2862816: mip =   2.867200000e+04 >=   2.713600000e+04   5.4% (45101; 86852)
+2873488: mip =   2.867200000e+04 >=   2.713600000e+04   5.4% (45257; 87050)
+2886101: mip =   2.867200000e+04 >=   2.713600000e+04   5.4% (45407; 87263)
+2893705: mip =   2.867200000e+04 >=   2.713600000e+04   5.4% (45549; 87505)
+2901899: mip =   2.867200000e+04 >=   2.713600000e+04   5.4% (45701; 87751)
+2909456: mip =   2.867200000e+04 >=   2.713600000e+04   5.4% (45828; 88018)
+2915513: mip =   2.867200000e+04 >=   2.713600000e+04   5.4% (45862; 88461)
Time used: 1200.1 secs.  Memory used: 378.3 Mb.
+2922355: mip =   2.867200000e+04 >=   2.713600000e+04   5.4% (45917; 88847)
+2929563: mip =   2.867200000e+04 >=   2.713600000e+04   5.4% (45990; 89221)
+2936431: mip =   2.867200000e+04 >=   2.713600000e+04   5.4% (46054; 89592)
+2943386: mip =   2.867200000e+04 >=   2.713600000e+04   5.4% (46111; 89969)
+2951847: mip =   2.867200000e+04 >=   2.713600000e+04   5.4% (46225; 90268)
+2959414: mip =   2.867200000e+04 >=   2.713600000e+04   5.4% (46319; 90614)
+2967768: mip =   2.867200000e+04 >=   2.713600000e+04   5.4% (46419; 90928)
+2974264: mip =   2.867200000e+04 >=   2.713600000e+04   5.4% (46431; 91350)
+2981101: mip =   2.867200000e+04 >=   2.713600000e+04   5.4% (46475; 91744)
+2988067: mip =   2.867200000e+04 >=   2.713600000e+04   5.4% (46593; 92044)
+2995925: mip =   2.867200000e+04 >=   2.713600000e+04   5.4% (46744; 92275)
Time used: 1260.1 secs.  Memory used: 386.2 Mb.
+3003815: mip =   2.867200000e+04 >=   2.713600000e+04   5.4% (46852; 92579)
+3011289: mip =   2.867200000e+04 >=   2.713600000e+04   5.4% (46920; 92926)
+3018575: mip =   2.867200000e+04 >=   2.713600000e+04   5.4% (47006; 93275)
+3026204: mip =   2.867200000e+04 >=   2.713600000e+04   5.4% (47121; 93580)
+3034073: mip =   2.867200000e+04 >=   2.713600000e+04   5.4% (47231; 93855)
+3042771: mip =   2.867200000e+04 >=   2.713600000e+04   5.4% (47315; 94170)
+3050320: mip =   2.867200000e+04 >=   2.713600000e+04   5.4% (47437; 94428)
+3060196: mip =   2.867200000e+04 >=   2.713600000e+04   5.4% (47578; 94660)
+3069236: mip =   2.867200000e+04 >=   2.713600000e+04   5.4% (47751; 94874)
+3078292: mip =   2.867200000e+04 >=   2.713600000e+04   5.4% (47899; 95110)
+3086036: mip =   2.867200000e+04 >=   2.713600000e+04   5.4% (48001; 95370)
+3094733: mip =   2.867200000e+04 >=   2.713600000e+04   5.4% (48119; 95631)
Time used: 1320.1 secs.  Memory used: 397.4 Mb.
+3102177: mip =   2.867200000e+04 >=   2.713600000e+04   5.4% (48240; 95889)
+3109697: mip =   2.867200000e+04 >=   2.713600000e+04   5.4% (48378; 96138)
+3117128: mip =   2.867200000e+04 >=   2.713600000e+04   5.4% (48486; 96397)
+3125457: mip =   2.867200000e+04 >=   2.713600000e+04   5.4% (48645; 96625)
+3133221: mip =   2.867200000e+04 >=   2.713600000e+04   5.4% (48803; 96846)
+3143843: mip =   2.867200000e+04 >=   2.713600000e+04   5.4% (48990; 97037)
+3152082: mip =   2.867200000e+04 >=   2.713600000e+04   5.4% (49135; 97265)
+3159988: mip =   2.867200000e+04 >=   2.713600000e+04   5.4% (49310; 97484)
+3168020: mip =   2.867200000e+04 >=   2.713600000e+04   5.4% (49460; 97718)
+3175338: mip =   2.867200000e+04 >=   2.713600000e+04   5.4% (49553; 98038)
+3182819: mip =   2.867200000e+04 >=   2.713600000e+04   5.4% (49617; 98372)
+3193420: mip =   2.867200000e+04 >=   2.713600000e+04   5.4% (49772; 98609)
Time used: 1380.1 secs.  Memory used: 410.7 Mb.
+3203817: mip =   2.867200000e+04 >=   2.713600000e+04   5.4% (49916; 98814)
+3210644: mip =   2.867200000e+04 >=   2.713600000e+04   5.4% (50038; 99083)
+3218035: mip =   2.867200000e+04 >=   2.713600000e+04   5.4% (50179; 99325)
+3224455: mip =   2.867200000e+04 >=   2.713600000e+04   5.4% (50299; 99572)
+3231480: mip =   2.867200000e+04 >=   2.713600000e+04   5.4% (50452; 99794)
+3243308: mip =   2.867200000e+04 >=   2.713600000e+04   5.4% (50631; 99973)
+3252232: mip =   2.867200000e+04 >=   2.713600000e+04   5.4% (50764; 100186)
+3259004: mip =   2.867200000e+04 >=   2.713600000e+04   5.4% (50896; 100428)
+3266541: mip =   2.867200000e+04 >=   2.713600000e+04   5.4% (51046; 100645)
+3274631: mip =   2.867200000e+04 >=   2.713600000e+04   5.4% (51203; 100848)
+3281104: mip =   2.867200000e+04 >=   2.713600000e+04   5.4% (51347; 101076)
+3288905: mip =   2.867200000e+04 >=   2.713600000e+04   5.4% (51486; 101289)
Time used: 1440.1 secs.  Memory used: 426.2 Mb.
+3296512: mip =   2.867200000e+04 >=   2.713600000e+04   5.4% (51633; 101501)
+3303780: mip =   2.867200000e+04 >=   2.713600000e+04   5.4% (51780; 101721)
+3312300: mip =   2.867200000e+04 >=   2.713600000e+04   5.4% (51917; 101927)
+3320366: mip =   2.867200000e+04 >=   2.713600000e+04   5.4% (52062; 102141)
+3328741: mip =   2.867200000e+04 >=   2.713600000e+04   5.4% (52222; 102340)
+3334980: mip =   2.867200000e+04 >=   2.713600000e+04   5.4% (52345; 102558)
+3341606: mip =   2.867200000e+04 >=   2.713600000e+04   5.4% (52461; 102803)
+3348753: mip =   2.867200000e+04 >=   2.713600000e+04   5.4% (52579; 103050)
+3357223: mip =   2.867200000e+04 >=   2.713600000e+04   5.4% (52707; 103237)
+3364859: mip =   2.867200000e+04 >=   2.713600000e+04   5.4% (52871; 103438)
+3371981: mip =   2.867200000e+04 >=   2.713600000e+04   5.4% (52988; 103630)
+3379586: mip =   2.867200000e+04 >=   2.713600000e+04   5.4% (53105; 103829)
Time used: 1500.1 secs.  Memory used: 439.2 Mb.
+3387866: mip =   2.867200000e+04 >=   2.713600000e+04   5.4% (53260; 104016)
+3394503: mip =   2.867200000e+04 >=   2.713600000e+04   5.4% (53356; 104251)
+3401482: mip =   2.867200000e+04 >=   2.713600000e+04   5.4% (53484; 104463)
+3408226: mip =   2.867200000e+04 >=   2.713600000e+04   5.4% (53623; 104675)
+3414150: mip =   2.867200000e+04 >=   2.713600000e+04   5.4% (53718; 104912)
+3420470: mip =   2.867200000e+04 >=   2.713600000e+04   5.4% (53824; 105164)
+3427868: mip =   2.867200000e+04 >=   2.713600000e+04   5.4% (53967; 105380)
+3435344: mip =   2.867200000e+04 >=   2.713600000e+04   5.4% (54074; 105615)
+3441309: mip =   2.867200000e+04 >=   2.713600000e+04   5.4% (54180; 105838)
+3447586: mip =   2.867200000e+04 >=   2.713600000e+04   5.4% (54290; 106051)
+3454359: mip =   2.867200000e+04 >=   2.713600000e+04   5.4% (54419; 106283)
+3460655: mip =   2.867200000e+04 >=   2.713600000e+04   5.4% (54514; 106526)
Time used: 1560.1 secs.  Memory used: 450.0 Mb.
+3467063: mip =   2.867200000e+04 >=   2.713600000e+04   5.4% (54620; 106753)
+3473040: mip =   2.867200000e+04 >=   2.713600000e+04   5.4% (54707; 107004)
+3479239: mip =   2.867200000e+04 >=   2.713600000e+04   5.4% (54809; 107273)
+3486583: mip =   2.867200000e+04 >=   2.713600000e+04   5.4% (55001; 107452)
+3493345: mip =   2.867200000e+04 >=   2.713600000e+04   5.4% (55125; 107666)
+3501894: mip =   2.867200000e+04 >=   2.713600000e+04   5.4% (55246; 107860)
+3509446: mip =   2.867200000e+04 >=   2.713600000e+04   5.4% (55370; 108077)
+3515476: mip =   2.867200000e+04 >=   2.713600000e+04   5.4% (55470; 108305)
+3522074: mip =   2.867200000e+04 >=   2.713600000e+04   5.4% (55591; 108509)
+3528895: mip =   2.867200000e+04 >=   2.713600000e+04   5.4% (55723; 108724)
+3535116: mip =   2.867200000e+04 >=   2.713600000e+04   5.4% (55835; 108948)
+3541144: mip =   2.867200000e+04 >=   2.713600000e+04   5.4% (55942; 109174)
Time used: 1620.1 secs.  Memory used: 462.5 Mb.
+3548247: mip =   2.867200000e+04 >=   2.713600000e+04   5.4% (56073; 109381)
+3556867: mip =   2.867200000e+04 >=   2.713600000e+04   5.4% (56234; 109562)
+3563198: mip =   2.867200000e+04 >=   2.713600000e+04   5.4% (56363; 109776)
+3569188: mip =   2.867200000e+04 >=   2.713600000e+04   5.4% (56487; 109980)
+3575489: mip =   2.867200000e+04 >=   2.713600000e+04   5.4% (56598; 110202)
+3582971: mip =   2.867200000e+04 >=   2.713600000e+04   5.4% (56741; 110403)
+3588938: mip =   2.867200000e+04 >=   2.713600000e+04   5.4% (56881; 110610)
+3595025: mip =   2.867200000e+04 >=   2.713600000e+04   5.4% (56999; 110821)
+3603776: mip =   2.867200000e+04 >=   2.713600000e+04   5.4% (57144; 110994)
+3611236: mip =   2.867200000e+04 >=   2.713600000e+04   5.4% (57248; 111203)
+3618396: mip =   2.867200000e+04 >=   2.713600000e+04   5.4% (57384; 111409)
+3624708: mip =   2.867200000e+04 >=   2.713600000e+04   5.4% (57518; 111620)
Time used: 1680.1 secs.  Memory used: 474.2 Mb.
+3632135: mip =   2.867200000e+04 >=   2.713600000e+04   5.4% (57688; 111818)
+3639131: mip =   2.867200000e+04 >=   2.713600000e+04   5.4% (57817; 112051)
+3644762: mip =   2.867200000e+04 >=   2.713600000e+04   5.4% (57903; 112310)
+3652100: mip =   2.867200000e+04 >=   2.713600000e+04   5.4% (58061; 112495)
+3660279: mip =   2.867200000e+04 >=   2.713600000e+04   5.4% (58181; 112683)
+3668044: mip =   2.867200000e+04 >=   2.713600000e+04   5.4% (58285; 112873)
+3675294: mip =   2.867200000e+04 >=   2.713600000e+04   5.4% (58407; 113090)
+3682446: mip =   2.867200000e+04 >=   2.713600000e+04   5.4% (58558; 113318)
+3690060: mip =   2.867200000e+04 >=   2.713600000e+04   5.4% (58686; 113498)
+3697869: mip =   2.867200000e+04 >=   2.713600000e+04   5.4% (58832; 113695)
+3704723: mip =   2.867200000e+04 >=   2.713600000e+04   5.4% (58973; 113891)
+3712262: mip =   2.867200000e+04 >=   2.713600000e+04   5.4% (59121; 114094)
Time used: 1740.2 secs.  Memory used: 485.9 Mb.
+3720111: mip =   2.867200000e+04 >=   2.713600000e+04   5.4% (59268; 114270)
+3727156: mip =   2.867200000e+04 >=   2.713600000e+04   5.4% (59396; 114485)
+3735135: mip =   2.867200000e+04 >=   2.713600000e+04   5.4% (59539; 114681)
+3741329: mip =   2.867200000e+04 >=   2.713600000e+04   5.4% (59667; 114890)
+3747142: mip =   2.867200000e+04 >=   2.713600000e+04   5.4% (59785; 115100)
+3754675: mip =   2.867200000e+04 >=   2.713600000e+04   5.4% (59889; 115319)
+3760962: mip =   2.867200000e+04 >=   2.713600000e+04   5.4% (60000; 115531)
+3767399: mip =   2.867200000e+04 >=   2.713600000e+04   5.4% (60112; 115747)
+3774847: mip =   2.867200000e+04 >=   2.713600000e+04   5.4% (60249; 115942)
+3781486: mip =   2.867200000e+04 >=   2.713600000e+04   5.4% (60386; 116131)
+3788600: mip =   2.867200000e+04 >=   2.713600000e+04   5.4% (60500; 116317)
+3794597: mip =   2.867200000e+04 >=   2.713600000e+04   5.4% (60609; 116533)
